(set-info :smt-lib-version 2.6)
(set-logic QF_SLIA)
(set-info :source |
Generated by: Georgiy Belyanin, Mikhail Starchak
Generated on: 2026-02-19
Application: Evaluate string solvers on problems featuring combinations of length constraints and string-to-integer conversions
Target solver: CVC5, Z3-Noodler
Time limit: 60.0
Generated benchmarks featuring regular constraints, linear integer constraints over
string lengths and integers converted from strings.
Each benchmark contains from 2 to 4 string variables, which occur in the scope of
str.len and str.to_int functions. The assertions are composed of
— a regular constraint over each variable;
— 1, 2, or 3 linear constraints over string lengths and variables converted to integers.
The benchmarks are split into three categories:
— "random", with integer coefficients ranging from -10 to 10 and constants from -100 to 100;
— "long", with at least one assertion requiring the length of a variable to be more than 1000;
— "z3-hard", which are unsolvable by Z3 in 10s (on a single Intel Core i7-6700 CPU core @ 3.40GHz with 8GB of DDR5 RAM).
|)
(set-info :license "https://creativecommons.org/licenses/by/4.0/")
(set-info :category "random")
(set-info :status unknown)

(declare-const x String)
(declare-const y String)
(declare-const z String)

(assert (>= (str.to_int x) 0))
(assert (>= (str.to_int y) 0))
(assert (>= (str.to_int z) 0))

(assert (>= (str.len y) 1000))
(assert (>= (str.len z) 1000))
(assert (>= (str.len x) 1000))

(assert (str.in_re z (re.++ (re.+ (str.to_re "1")) (re.* (str.to_re "235")))))
(assert (str.in_re x (re.* (re.++ (str.to_re "465") (str.to_re "347")))))
(assert (str.in_re y (re.union (str.to_re "478") (re.* (str.to_re "463")))))

(assert (> (+ (* (- 3) (str.to_int x)) (* 9 (str.to_int y)) (str.to_int z)) 63))
(assert (>= (+ (* 3 (str.len x)) (* (- 10) (str.len y)) (* (- 4) (str.len z))) 10))
(assert (>= (+ (* 5 (str.len x)) (* 9 (str.len y)) (str.len z)) 50))

(check-sat)
(exit)
